0 0 0 0
0 1 0 0
0 2 1 0
0 3 0 0
0 4 0 1
0 5 0 3
0 6 0 1
0 7 0 6
0 8 0 2
0 9 0 1
0 10 1 6
0 11 1 2
0 12 1 8
0 13 0 11
0 14 2 3
0 15 0 16
0 16 0 8
0 17 0 12
0 18 1 13
0 19 2 6
0 20 1 8
0 21 1 11
0 22 0 13
0 23 2 12
0 24 0 18
0 25 0 20
0 26 0 12
0 27 0 18
0 28 2 18
0 29 0 23
0 30 1 16
0 31 0 25
